
Gurobi 13.0.1 (linux64) logging started Thu Mar 26 13:08:20 2026

Set parameter LogFile to value "logs_sparse/75B_3F_robust_gamma_0d75_theta_0d05199999999999999_2026-03-26_13h08m05s.log"
Set parameter MIPGap to value 0.005
Set parameter OptimalityTol to value 0.005
Gurobi Optimizer version 13.0.1 build v13.0.1rc0 (linux64 - "Linux Mint 22")

CPU model: 12th Gen Intel(R) Core(TM) i7-12700, instruction set [SSE2|AVX|AVX2]
Thread count: 20 physical cores, 20 logical processors, using up to 20 threads

Non-default parameters:
TimeLimit  3600
SoftMemLimit  12
MIPGap  0.005
OptimalityTol  0.005

Optimize a model with 45596 rows, 867096 columns and 2644377 nonzeros (Max)
Model fingerprint: 0x41a5aaea
Model has 832586 linear objective coefficients
Variable types: 12096 continuous, 855000 integer (855000 binary)
Coefficient statistics:
  Matrix range     [3e-05, 1e+05]
  Objective range  [1e+00, 3e+03]
  Bounds range     [1e+00, 1e+05]
  RHS range        [1e-02, 1e+05]

Presolve removed 23361 rows and 626499 columns
Presolve time: 1.50s
Presolved: 22235 rows, 240597 columns, 754072 nonzeros
Variable types: 5898 continuous, 234699 integer (234699 binary)
Found heuristic solution: objective -4.12338e+08
Deterministic concurrent LP optimizer: primal simplex, dual simplex, and barrier
Showing barrier log only...

Root barrier log...

Ordering time: 0.48s

Barrier statistics:
 AA' NZ     : 3.860e+05
 Factor NZ  : 3.362e+06 (roughly 130 MB of memory)
 Factor Ops : 9.985e+08 (less than 1 second per iteration)
 Threads    : 18

                  Objective                Residual
Iter       Primal          Dual         Primal    Dual     Compl     Time
   0  -8.70991035e+11  1.19652804e+09  2.53e+07 1.02e+03  1.06e+07     3s
   1  -9.04385109e+10  2.95928586e+09  2.63e+06 2.84e-11  1.12e+06     3s
   2  -3.30752008e+09  1.83960682e+09  9.56e+04 5.62e-11  4.42e+04     3s
   3  -6.68388734e+07  1.53039314e+09  7.71e+03 3.37e-11  5.86e+03     3s
   4   1.85888666e+08  7.53438515e+08  1.10e+03 3.39e-11  1.44e+03     3s
   5   2.20106092e+08  4.69000721e+08  3.66e+02 3.41e-11  5.88e+02     3s
   6   2.30500997e+08  3.01007661e+08  1.59e+02 4.26e-11  1.76e+02     3s
   7   2.34117879e+08  2.66638918e+08  8.63e+01 3.46e-11  8.30e+01     4s
   8   2.36457439e+08  2.54181692e+08  4.08e+01 4.16e-11  4.38e+01     4s
   9   2.37744670e+08  2.44206245e+08  1.72e+01 1.58e-10  1.62e+01     4s
  10   2.38207636e+08  2.41361583e+08  9.00e+00 1.34e-10  7.67e+00     4s
  11   2.38612679e+08  2.39928082e+08  1.70e+00 1.13e-10  2.84e+00     4s
  12   2.38699604e+08  2.39588687e+08  5.78e-01 1.49e-10  1.84e+00     4s
  13   2.38747401e+08  2.39121332e+08  2.48e-01 1.05e-10  7.63e-01     4s
  14   2.38775344e+08  2.39036957e+08  1.34e-01 1.29e-10  5.32e-01     4s
  15   2.38819114e+08  2.38974792e+08  3.76e-02 1.70e-10  3.16e-01     4s
  16   2.38830356e+08  2.38911090e+08  1.84e-02 1.46e-10  1.64e-01     4s
  17   2.38840938e+08  2.38883417e+08  2.97e-03 1.57e-10  8.63e-02     5s
  18   2.38842177e+08  2.38865887e+08  1.89e-03 1.26e-10  4.82e-02     5s
  19   2.38843668e+08  2.38857349e+08  6.88e-04 1.58e-10  2.78e-02     5s
  20   2.38844299e+08  2.38852996e+08  2.36e-04 1.58e-10  1.77e-02     5s
  21   2.38844496e+08  2.38851923e+08  1.15e-04 1.38e-10  1.51e-02     5s
  22   2.38844519e+08  2.38849618e+08  7.93e-05 1.47e-10  1.04e-02     5s
  23   2.38844618e+08  2.38848212e+08  3.50e-05 1.76e-10  7.30e-03     5s
  24   2.38844651e+08  2.38846929e+08  2.34e-05 1.23e-10  4.63e-03     5s
  25   2.38844685e+08  2.38846600e+08  1.10e-05 1.41e-10  3.89e-03     5s
  26   2.38844704e+08  2.38846010e+08  4.90e-06 1.82e-10  2.65e-03     5s
  27   2.38844705e+08  2.38845114e+08  2.42e-06 1.03e-10  8.31e-04     5s
  28   2.38844717e+08  2.38844919e+08  6.98e-07 1.23e-10  4.10e-04     5s
  29   2.38844719e+08  2.38844783e+08  1.84e-07 1.04e-10  1.29e-04     5s
  30   2.38844722e+08  2.38844732e+08  5.81e-08 1.03e-10  1.97e-05     5s
  31   2.38844723e+08  2.38844726e+08  2.13e-08 1.23e-10  5.94e-06     6s
  32   2.38844724e+08  2.38844724e+08  1.86e-09 9.78e-11  2.44e-07     6s
  33   2.38844724e+08  2.38844724e+08  1.28e-09 9.65e-11  2.07e-10     6s

Barrier solved model in 33 iterations and 5.63 seconds (6.44 work units)
Optimal objective 2.38844724e+08


Root crossover log...

    5074 DPushes remaining with DInf 0.0000000e+00                 6s
       0 DPushes remaining with DInf 0.0000000e+00                 6s

    5055 PPushes remaining with PInf 2.3010613e-06                 6s
       0 PPushes remaining with PInf 0.0000000e+00                 6s

  Push phase complete: Pinf 0.0000000e+00, Dinf 9.3561399e+03      6s


Root simplex log...

Iteration    Objective       Primal Inf.    Dual Inf.      Time
    9778    2.3884472e+08   0.000000e+00   9.356128e+03      6s
    9976    2.3884472e+08   0.000000e+00   0.000000e+00      6s
Crossover time: 0.53 seconds (0.37 work units)
Concurrent spin time: 0.15s

Solved with barrier

Root relaxation: objective 2.388447e+08, 9976 iterations, 4.18 seconds (3.39 work units)

    Nodes    |    Current Node    |     Objective Bounds      |     Work
 Expl Unexpl |  Obj  Depth IntInf | Incumbent    BestBd   Gap | It/Node Time

     0     0 2.3884e+08    0 7264 -4.123e+08 2.3884e+08   158%     -    7s
H    0     0                    9.346990e+07 2.3884e+08   156%     -    8s
H    0     0                    1.419913e+08 2.3884e+08  68.2%     -    8s
H    0     0                    1.465577e+08 2.3884e+08  63.0%     -    8s
H    0     0                    1.498053e+08 2.3884e+08  59.4%     -    8s
H    0     0                    1.499937e+08 2.3884e+08  59.2%     -   10s
H    0     0                    1.520284e+08 2.3884e+08  57.1%     -   10s
H    0     0                    2.237430e+08 2.3884e+08  6.75%     -   12s
     0     0 2.3884e+08    0 5428 2.2374e+08 2.3884e+08  6.75%     -  220s
H    0     0                    2.237451e+08 2.3884e+08  6.75%     -  292s
H    0     0                    2.237458e+08 2.3884e+08  6.75%     -  292s
H    0     0                    2.237474e+08 2.3884e+08  6.75%     -  333s
H    0     0                    2.237475e+08 2.3884e+08  6.75%     -  333s
H    0     0                    2.237475e+08 2.3884e+08  6.75%     -  333s
H    0     0                    2.237477e+08 2.3884e+08  6.75%     -  409s
     0     0 2.3884e+08    0 7183 2.2375e+08 2.3884e+08  6.75%     -  885s
H    0     0                    2.255205e+08 2.3884e+08  5.91%     -  888s
H    0     0                    2.255726e+08 2.3884e+08  5.88%     -  895s
H    0     0                    2.267168e+08 2.3884e+08  5.35%     -  915s
H    0     0                    2.270248e+08 2.3884e+08  5.21%     -  926s
H    0     0                    2.273129e+08 2.3884e+08  5.07%     -  935s
H    0     0                    2.273873e+08 2.3884e+08  5.04%     -  967s
H    0     0                    2.275973e+08 2.3884e+08  4.94%     -  971s
H    0     0                    2.278079e+08 2.3884e+08  4.84%     -  971s
H    0     0                    2.278105e+08 2.3884e+08  4.84%     -  971s
H    0     0                    2.278180e+08 2.3884e+08  4.84%     -  997s
H    0     0                    2.278356e+08 2.3884e+08  4.83%     - 1046s
     0     0 2.3884e+08    0 6879 2.2784e+08 2.3884e+08  4.83%     - 1063s
     0     0 2.3884e+08    0 7049 2.2784e+08 2.3884e+08  4.83%     - 1428s
     0     0 2.3884e+08    0 6974 2.2784e+08 2.3884e+08  4.83%     - 1510s
     0     0 2.3884e+08    0 6989 2.2784e+08 2.3884e+08  4.83%     - 1928s
     0     0 2.3884e+08    0 6989 2.2784e+08 2.3884e+08  4.83%     - 1930s
     0     0 2.3884e+08    0 6914 2.2784e+08 2.3884e+08  4.83%     - 1930s
H    0     0                    2.278400e+08 2.3884e+08  4.83%     - 2234s
     0     2 2.3884e+08    0 6914 2.2784e+08 2.3884e+08  4.83%     - 2350s
     1     3 2.3884e+08    1 5460 2.2784e+08 2.3884e+08  4.83% 134225 2494s
     2     4 2.3884e+08    1 7199 2.2784e+08 2.3884e+08  4.83% 186989 2707s
     3     5 2.3884e+08    2 5721 2.2784e+08 2.3884e+08  4.83% 200541 2905s
     4     6 2.3884e+08    2 5747 2.2784e+08 2.3884e+08  4.83% 203856 3113s
     5     7 2.3884e+08    3 5788 2.2784e+08 2.3884e+08  4.83% 206978 3341s
     6     9 2.3884e+08    4 5790 2.2784e+08 2.3884e+08  4.83% 182498 3600s

Cutting planes:
  MIR: 7
  Flow cover: 100
  RLT: 3175
  Relax-and-lift: 86

Explored 8 nodes (2296295 simplex iterations) in 3600.06 seconds (6654.08 work units)
Thread count was 20 (of 20 available processors)

Solution count 10: 2.2784e+08 2.27836e+08 2.27818e+08 ... 2.26717e+08

Time limit reached
Best objective 2.278400320140e+08, best bound 2.388426165908e+08, gap 4.8291%
